972505 45139833
30
30 14333 657813 181317
31 985545 769817 726814 
23 609161 348032 588814 
1 46148 5276 443181 
25 265788 63272 551793 
25 433775 343595 313530 
53 635599 956001 588844 
23 928505 40241 958160 
19 698054 139476 15535 
59 425644 258701 678143 
7 123084 266956 781296 
41 788583 740828 739733 
1 320451 291525 463923 
31 151471 293805 24522 
23 249805 613366 278953 
21 169958 237112 670202 
5 892939 202089 584312 
3 460789 778806 869737 
23 562113 167385 269455 
11 424564 9187 405066 
49 817064 385340 499240 
27 679144 40113 271955 
59 653478 67259 656313 
55 820722 326514 724150 
59 528602 824814 548593 
39 603619 934682 89614 
3 618418 359068 516427 
21 884606 437844 787995 
21 339535 803586 702907 
1 843699 974861 980330 
